NAME : kroC100-C-5-1-a.22827.tour
COMMENT : Length = 22827
COMMENT : Found by LKH-3 [Keld Helsgaun] Tue Jul 30 13:14:12 2024
TYPE : TOUR
DIMENSION : 100
TOUR_SECTION
1
85
40
12
49
18
63
19
99
93
4
60
27
15
13
79
64
20
42
55
67
47
31
65
80
77
30
68
35
2
54
6
75
22
8
17
25
90
34
58
98
88
28
39
38
71
56
43
5
86
72
83
62
50
95
94
91
76
70
23
21
89
41
59
73
3
69
74
100
33
57
36
14
10
92
45
81
97
96
87
52
11
84
48
66
44
51
16
37
29
61
9
78
82
7
26
32
24
46
53
-1
EOF
